p cnf 14 64
4 -5 8 0
-1 -4 -13 0
1 -12 -14 0
-4 -7 -9 0
-3 -4 6 0
-1 -6 13 0
2 -9 -14 0
3 -7 12 0
2 5 9 0
8 -9 -14 0
5 -12 13 0
1 -8 -12 0
1 7 13 0
-10 11 -12 0
2 4 13 0
-5 7 11 0
3 8 10 0
2 -10 12 0
5 10 14 0
1 2 9 0
5 -6 -12 0
-5 -8 9 0
1 6 -12 0
1 9 -13 0
2 10 -12 0
1 5 6 0
-4 7 -13 0
1 2 -11 0
4 5 -6 0
-5 8 -13 0
-5 -6 -12 0
9 -11 -14 0
7 -9 12 0
3 -4 -9 0
-2 11 13 0
-5 11 -14 0
2 -4 13 0
7 -11 12 0
4 -10 -14 0
1 2 5 0
3 5 -7 0
3 -10 13 0
-3 10 -12 0
9 11 -14 0
-1 -10 11 0
-2 -4 -11 0
1 9 12 0
2 5 11 0
-5 9 10 0
3 -9 12 0
4 9 12 0
7 11 12 0
3 -6 8 0
2 7 13 0
1 8 -11 0
1 4 -7 0
-7 -8 -13 0
2 3 -13 0
-8 -12 -14 0
-1 4 13 0
-3 -10 -14 0
-2 8 -14 0
3 -10 12 0
6 -8 13 0
